s td 554 2 672
b 1 1
b 2 2
b 3 3 341
b 4 341 342
b 5 4 311
b 6 5 312
b 7 311 312
b 8 312
b 9 6
b 10 7
b 11 241 242
b 12 8 242
b 13 8 565
b 14 565 566
b 15 9
b 16 10
b 17 11 407
b 18 12
b 19 13
b 20 14 374
b 21 15 453
b 22 16
b 23 17
b 24 18 276
b 25 18 552
b 26 19
b 27 20
b 28 21 205
b 29 21 364
b 30 363 364
b 31 364
b 32 22 277
b 33 23
b 34 24
b 35 25 483
b 36 151 152
b 37 26 152
b 38 26 484
b 39 26 667
b 40 28 288
b 41 287 288
b 42 27 287
b 43 27 650
b 44 649 650
b 45 650
b 46 29 299
b 47 30 207
b 48 299 300
b 49 30 300
b 50 30 503
b 51 503 504
b 52 31 355
b 53 355 356
b 54 32
b 55 33 239
b 56 33 284
b 57 283 284
b 58 284
b 59 34 575
b 60 575 576
b 61 35
b 62 36 554
b 63 37
b 64 38 369
b 65 39 492
b 66 39 561
b 67 561 562
b 68 40 476
b 69 41
b 70 42 515
b 71 43 646
b 72 645 646
b 73 646
b 74 313 314
b 75 44 314
b 76 44 577
b 77 45
b 78 46
b 79 163 164
b 80 47 163
b 81 47 295
b 82 48 148
b 83 49
b 84 50 370
b 85 50 597
b 86 50 664
b 87 51
b 88 52 274
b 89 53 176
b 90 175 176
b 91 176
b 92 54 244
b 93 54 643
b 94 56 400
b 95 399 400
b 96 55 399
b 97 55 644
b 98 57 302
b 99 57 441
b 100 58 315
b 101 315 316
b 102 59 296
b 103 60 496
b 104 495 496
b 105 496
b 106 61
b 107 62 334
b 108 62 651
b 109 63 456
b 110 63 493
b 111 63 652
b 112 64 511
b 113 511 512
b 114 65 262
b 115 261 262
b 116 262
b 117 66 289
b 118 67 290
b 119 289 290
b 120 290
b 121 68 648
b 122 647 648
b 123 648
b 124 69 507
b 125 69 518
b 126 517 518
b 127 518
b 128 70
b 129 71 178
b 130 71 415
b 131 72
b 132 73 458
b 133 291 292
b 134 74 292
b 135 74 570
b 136 75 385
b 137 75 494
b 138 75 501
b 139 76
b 140 78 556
b 141 555 556
b 142 77 555
b 143 77 585
b 144 79 410
b 145 79 423
b 146 80
b 147 81 508
b 148 82 449
b 149 449 450
b 150 83 450
b 151 83 470
b 152 469 470
b 153 470
b 154 84
b 155 85 195
b 156 85 384
b 157 86 297
b 158 98 197
b 159 98 298
b 160 297 298
b 161 298
b 162 87 386
b 163 185 186
b 164 88 185
b 165 88 280
b 166 88 579
b 167 89 580
b 168 89 586
b 169 90 211
b 170 211 212
b 171 91 431
b 172 92 432
b 173 93 485
b 174 94 286
b 175 94 471
b 176 485 486
b 177 94 486
b 178 94 581
b 179 581 582
b 180 95 607
b 181 96
b 182 97 222
b 183 97 629
b 184 99 671
b 185 100 634
b 186 309 310
b 187 101 309
b 188 101 360
b 189 359 360
b 190 360
b 191 102 641
b 192 103 406
b 193 104 156
b 194 104 609
b 195 105 172
b 196 106 159
b 197 106 635
b 198 107 377
b 199 131 325
b 200 377 378
b 201 119 378
b 202 487 488
b 203 131 487
b 204 131 230
b 205 229 230
b 206 119 229
b 207 119 618
b 208 108
b 209 109 547
b 210 110 247
b 211 110 344
b 212 343 344
b 213 344
b 214 371 372
b 215 111 371
b 216 111 672
b 217 112 161
b 218 112 640
b 219 113 509
b 220 509 510
b 221 114 537
b 222 114 601
b 223 115 481
b 224 116 482
b 225 118 160
b 226 118 150
b 227 149 150
b 228 117 149
b 229 117 500
b 230 120 228
b 231 120 452
b 232 121 548
b 233 122
b 234 123 657
b 235 657 658
b 236 124 162
b 237 124 595
b 238 125 603
b 239 603 604
b 240 233 234
b 241 126 233
b 242 361 362
b 243 126 362
b 244 126 602
b 245 126 611
b 246 127 463
b 247 128 179
b 248 129 527
b 249 129 588
b 250 587 588
b 251 588
b 252 130 321
b 253 130 347
b 254 130 528
b 255 132
b 256 133
b 257 257 258
b 258 134 258
b 259 134 574
b 260 573 574
b 261 574
b 262 135 237
b 263 136
b 264 137 391
b 265 137 584
b 266 138 392
b 267 139 174
b 268 173 174
b 269 174
b 270 140 489
b 271 141 318
b 272 141 619
b 273 142 620
b 274 143
b 275 144 530
b 276 144 564
b 277 563 564
b 278 564
b 279 145 146
b 280 147
b 281 153 154
b 282 155
b 283 157
b 284 158
b 285 165 166
b 286 167 168
b 287 169
b 288 170
b 289 171
b 290 177
b 291 180
b 292 181
b 293 182
b 294 183 184
b 295 187
b 296 188
b 297 189
b 298 190
b 299 191 192
b 300 193 194
b 301 196
b 302 198
b 303 199 200
b 304 201
b 305 202
b 306 203
b 307 204
b 308 206
b 309 208
b 310 209
b 311 210
b 312 213 214
b 313 215
b 314 216
b 315 217
b 316 218
b 317 219 220
b 318 221
b 319 223
b 320 224
b 321 225
b 322 226
b 323 227
b 324 231
b 325 232
b 326 235
b 327 236
b 328 238
b 329 240
b 330 243
b 331 245
b 332 246
b 333 248
b 334 249
b 335 250
b 336 251
b 337 252
b 338 253
b 339 254
b 340 255
b 341 256
b 342 259 260
b 343 263 264
b 344 265
b 345 266
b 346 267
b 347 268
b 348 269
b 349 270
b 350 271 272
b 351 273
b 352 275
b 353 278
b 354 279
b 355 281
b 356 282
b 357 285
b 358 293 294
b 359 301
b 360 303
b 361 304
b 362 305 306
b 363 307 308
b 364 317
b 365 319
b 366 320
b 367 322
b 368 323
b 369 324
b 370 326
b 371 327
b 372 328
b 373 329 330
b 374 331
b 375 332
b 376 333
b 377 335
b 378 336
b 379 337
b 380 338
b 381 339
b 382 340
b 383 345
b 384 346
b 385 348
b 386 349
b 387 350
b 388 351 352
b 389 353
b 390 354
b 391 357
b 392 358
b 393 365
b 394 366
b 395 367
b 396 368
b 397 373
b 398 375 376
b 399 379
b 400 380
b 401 381 382
b 402 383
b 403 387 388
b 404 389 390
b 405 393
b 406 394
b 407 395
b 408 396
b 409 397
b 410 398
b 411 401 402
b 412 403
b 413 404
b 414 405
b 415 408
b 416 409
b 417 411 412
b 418 413
b 419 414
b 420 416
b 421 417
b 422 418
b 423 419 420
b 424 421
b 425 422
b 426 424
b 427 425
b 428 426
b 429 427 428
b 430 429
b 431 430
b 432 433
b 433 434
b 434 435 436
b 435 437 438
b 436 439
b 437 440
b 438 442
b 439 443
b 440 444
b 441 445
b 442 446
b 443 447
b 444 448
b 445 451
b 446 454
b 447 455
b 448 457
b 449 459
b 450 460
b 451 461 462
b 452 464
b 453 465 466
b 454 467
b 455 468
b 456 472
b 457 473 474
b 458 475
b 459 477 478
b 460 479
b 461 480
b 462 490
b 463 491
b 464 497
b 465 498
b 466 499
b 467 502
b 468 505
b 469 506
b 470 513 514
b 471 516
b 472 519
b 473 520
b 474 521
b 475 522
b 476 523
b 477 524
b 478 525 526
b 479 529
b 480 531
b 481 532
b 482 533
b 483 534
b 484 535
b 485 536
b 486 538
b 487 539
b 488 540
b 489 541
b 490 542
b 491 543 544
b 492 545 546
b 493 549
b 494 550
b 495 551
b 496 553
b 497 557
b 498 558
b 499 559
b 500 560
b 501 567
b 502 568
b 503 569
b 504 571
b 505 572
b 506 578
b 507 583
b 508 589
b 509 590
b 510 591
b 511 592
b 512 593 594
b 513 596
b 514 598
b 515 599
b 516 600
b 517 605
b 518 606
b 519 608
b 520 610
b 521 612
b 522 613
b 523 614
b 524 615
b 525 616
b 526 617
b 527 621
b 528 622
b 529 623 624
b 530 625 626
b 531 627
b 532 628
b 533 630
b 534 631
b 535 632
b 536 633
b 537 636
b 538 637
b 539 638
b 540 639
b 541 642
b 542 653
b 543 654
b 544 655 656
b 545 659
b 546 660
b 547 661
b 548 662
b 549 663
b 550 665
b 551 666
b 552 668
b 553 669
b 554 670
1 2
1 3
1 5
1 9
1 10
1 11
1 15
1 16
1 17
1 18
1 19
1 20
1 21
1 22
1 23
1 24
1 26
1 27
1 28
1 32
1 33
1 34
1 35
1 36
1 40
1 46
1 52
1 54
1 55
1 59
1 61
1 62
1 63
1 64
1 65
1 68
1 69
1 70
1 71
1 74
1 77
1 78
1 79
1 82
1 83
1 84
1 87
1 88
1 89
1 92
1 94
1 98
1 100
1 102
1 103
1 106
1 107
1 109
1 112
1 114
1 117
1 121
1 124
1 128
1 129
1 131
1 132
1 133
1 136
1 139
1 140
1 144
1 146
1 147
1 148
1 154
1 155
1 157
1 162
1 163
1 167
1 169
1 171
1 172
1 173
1 180
1 181
1 182
1 184
1 185
1 186
1 191
1 192
1 193
1 195
1 196
1 198
1 208
1 209
1 210
1 214
1 217
1 219
1 221
1 223
1 224
1 225
1 230
1 232
1 233
1 234
1 236
1 238
1 240
1 246
1 247
1 248
1 252
1 255
1 256
1 257
1 262
1 263
1 264
1 266
1 267
1 270
1 271
1 273
1 274
1 275
1 279
1 280
1 281
1 282
1 283
1 284
1 285
1 286
1 287
1 288
1 289
1 290
1 291
1 292
1 293
1 294
1 295
1 296
1 297
1 298
1 299
1 300
1 301
1 302
1 303
1 304
1 305
1 306
1 307
1 308
1 309
1 310
1 311
1 312
1 313
1 314
1 315
1 316
1 317
1 318
1 319
1 320
1 321
1 322
1 323
1 324
1 325
1 326
1 327
1 328
1 329
1 330
1 331
1 332
1 333
1 334
1 335
1 336
1 337
1 338
1 339
1 340
1 341
1 342
1 343
1 344
1 345
1 346
1 347
1 348
1 349
1 350
1 351
1 352
1 353
1 354
1 355
1 356
1 357
1 358
1 359
1 360
1 361
1 362
1 363
1 364
1 365
1 366
1 367
1 368
1 369
1 370
1 371
1 372
1 373
1 374
1 375
1 376
1 377
1 378
1 379
1 380
1 381
1 382
1 383
1 384
1 385
1 386
1 387
1 388
1 389
1 390
1 391
1 392
1 393
1 394
1 395
1 396
1 397
1 398
1 399
1 400
1 401
1 402
1 403
1 404
1 405
1 406
1 407
1 408
1 409
1 410
1 411
1 412
1 413
1 414
1 415
1 416
1 417
1 418
1 419
1 420
1 421
1 422
1 423
1 424
1 425
1 426
1 427
1 428
1 429
1 430
1 431
1 432
1 433
1 434
1 435
1 436
1 437
1 438
1 439
1 440
1 441
1 442
1 443
1 444
1 445
1 446
1 447
1 448
1 449
1 450
1 451
1 452
1 453
1 454
1 455
1 456
1 457
1 458
1 459
1 460
1 461
1 462
1 463
1 464
1 465
1 466
1 467
1 468
1 469
1 470
1 471
1 472
1 473
1 474
1 475
1 476
1 477
1 478
1 479
1 480
1 481
1 482
1 483
1 484
1 485
1 486
1 487
1 488
1 489
1 490
1 491
1 492
1 493
1 494
1 495
1 496
1 497
1 498
1 499
1 500
1 501
1 502
1 503
1 504
1 505
1 506
1 507
1 508
1 509
1 510
1 511
1 512
1 513
1 514
1 515
1 516
1 517
1 518
1 519
1 520
1 521
1 522
1 523
1 524
1 525
1 526
1 527
1 528
1 529
1 530
1 531
1 532
1 533
1 534
1 535
1 536
1 537
1 538
1 539
1 540
1 541
1 542
1 543
1 544
1 545
1 546
1 547
1 548
1 549
1 550
1 551
1 552
1 553
1 554
3 4
5 7
6 8
7 8
11 12
12 13
13 14
24 25
28 29
29 31
30 31
36 37
37 39
38 39
40 41
41 42
42 43
43 45
44 45
46 48
47 50
48 49
49 50
50 51
52 53
55 56
56 58
57 58
59 60
65 66
66 67
71 73
72 73
74 75
75 76
79 80
80 81
84 86
85 86
89 91
90 91
92 93
94 95
95 96
96 97
98 99
100 101
103 105
104 105
107 108
109 111
110 111
112 113
114 116
115 116
117 119
118 120
119 120
121 123
122 123
124 125
125 127
126 127
129 130
133 134
134 135
136 138
137 138
140 141
141 142
142 143
144 145
148 149
149 150
150 151
151 153
152 153
155 156
157 160
158 159
159 161
160 161
163 164
164 166
165 166
167 168
169 170
173 176
174 178
175 178
176 177
177 178
178 179
182 183
186 187
187 188
188 190
189 190
193 194
196 197
198 200
199 204
200 201
201 207
202 203
203 204
204 205
205 206
206 207
210 211
211 213
212 213
214 215
215 216
217 218
219 220
221 222
225 226
226 227
227 228
228 229
230 231
234 235
236 237
238 239
240 241
241 245
242 243
243 245
244 245
248 249
249 251
250 251
252 254
253 254
257 258
258 259
259 261
260 261
264 265
267 269
268 269
271 272
275 276
276 278
277 278
